; benchmark generated from python API
(set-info :status unknown)
(declare-fun DISJ_W_S2_R_S1 () Bool)
(declare-fun W_S2_V3 () Bool)
(declare-fun W_S2_V2 () Bool)
(declare-fun R_S2_V4 () Bool)
(declare-fun R_S2_V1 () Bool)
(declare-fun R_S2_V5 () Bool)
(declare-fun W_S1_V5 () Bool)
(declare-fun W_S1_V4 () Bool)
(declare-fun W_S2_V5 () Bool)
(declare-fun DISJ_W_S1_W_S2 () Bool)
(declare-fun R_S2_V3 () Bool)
(declare-fun W_S2_V1 () Bool)
(declare-fun DISJ_W_S1_R_S2 () Bool)
(declare-fun DISJ_W_S2_R_S2 () Bool)
(declare-fun R_E1_V4 () Bool)
(declare-fun R_E1_V5 () Bool)
(declare-fun R_S2_V2 () Bool)
(declare-fun R_S1_V4 () Bool)
(declare-fun R_S1_V5 () Bool)
(declare-fun R_S1_V2 () Bool)
(declare-fun R_S1_V3 () Bool)
(declare-fun R_S1_V1 () Bool)
(declare-fun R_E1_V2 () Bool)
(declare-fun DISJ_W_S2_R_E1 () Bool)
(declare-fun R_E1_V3 () Bool)
(declare-fun DISJ_W_S1_R_S1 () Bool)
(declare-fun W_S2_V4 () Bool)
(declare-fun W_S1_V3 () Bool)
(declare-fun W_S1_V2 () Bool)
(declare-fun W_S1_V1 () Bool)
(declare-fun R_E1_V1 () Bool)
(declare-fun DISJ_W_S1_R_E1 () Bool)
(assert
 (let (($x3498 (not W_S2_V3)))
 (let (($x5250 (not W_S2_V2)))
 (let (($x1839 (not R_S2_V4)))
 (let (($x2202 (not R_S2_V1)))
 (let (($x2382 (not (and $x2202 $x1839 $x5250 $x3498 DISJ_W_S2_R_S1))))
 (let (($x629 (not (and (not R_S2_V5) $x1839 $x3498 DISJ_W_S2_R_S1))))
 (let (($x391 (not (and $x1839 (not W_S1_V5) $x3498 DISJ_W_S2_R_S1))))
 (let (($x3956 (not (and $x2202 (not R_S2_V5) $x5250 $x3498 DISJ_W_S2_R_S1))))
 (let (($x5470 (not (and (not R_S2_V5) (not W_S1_V4) $x3498 DISJ_W_S2_R_S1))))
 (let (($x398 (not (and $x2202 $x5250 (not W_S2_V5) $x3498 DISJ_W_S2_R_S1))))
 (let (($x3538 (not (and DISJ_W_S1_W_S2 DISJ_W_S2_R_S1))))
 (let (($x4671 (not (and $x2202 (not R_S2_V3) (not R_S2_V5) $x5250 DISJ_W_S2_R_S1))))
 (let (($x4691 (not (and $x2202 (not R_S2_V3) $x1839 $x5250 DISJ_W_S2_R_S1))))
 (let (($x5789 (not (and $x2202 $x1839 $x5250 (not W_S2_V5) DISJ_W_S2_R_S1))))
 (let (($x2763 (not (and $x2202 (not R_S2_V5) $x1839 $x5250 DISJ_W_S2_R_S1))))
 (let (($x2166 (not (and $x2202 (not R_S2_V3) $x5250 (not W_S2_V5) DISJ_W_S2_R_S1))))
 (let (($x812 (not W_S2_V1)))
 (let (($x2084 (and $x812 $x5250)))
 (let (($x2227 (not $x2084)))
 (let (($x1596 (not (and (not R_S2_V3) $x1839 (not W_S2_V5) DISJ_W_S2_R_S1))))
 (let (($x2082 (not (and $x1839 (not W_S2_V5) $x3498 DISJ_W_S2_R_S1))))
 (let (($x5767 (not (and (not R_S2_V3) (not W_S1_V4) (not W_S2_V5) DISJ_W_S2_R_S1))))
 (let (($x1635 (not (and DISJ_W_S1_R_S2 DISJ_W_S2_R_S1))))
 (let (($x3055 (not (and $x5250 DISJ_W_S2_R_S2))))
 (let (($x27 (not (and DISJ_W_S2_R_S1 DISJ_W_S2_R_S2))))
 (let (($x4233 (not (and W_S1_V4 R_E1_V4))))
 (let (($x243 (not (and W_S1_V5 R_E1_V5))))
 (let (($x3712 (forall ((V3_0 Int) )(forall ((V2_0 Int) )(forall ((V5_0 Int) )(forall ((V4_0 Int) )(forall ((MW_S1_V1 Bool) )(forall ((MW_S1_V3 Bool) )(forall ((MW_S1_V2 Bool) )(forall ((MW_S1_V5 Bool) )(forall ((MW_S1_V4 Bool) )(forall ((MW_S2_V1 Bool) )(forall ((MW_S2_V3 Bool) )(forall ((MW_S2_V2 Bool) )(forall ((MW_S2_V5 Bool) )(forall ((MW_S2_V4 Bool) )(forall ((S1_V1_!2447 Int) )(forall ((S1_V1_!2464 Int) )(forall ((S1_V1_!2474 Int) )(forall ((S2_V5_!2456 Int) )(forall ((S2_V5_!2461 Int) )(forall ((S2_V5_!2472 Int) )(forall ((S2_V5_!2482 Int) )(forall ((S1_V3_!2448 Int) )(forall ((S1_V3_!2465 Int) )(forall ((S1_V3_!2475 Int) )(forall ((S1_V2_!2449 Int) )(forall ((S1_V2_!2466 Int) )(forall ((S1_V2_!2476 Int) )(forall ((E1_!2446 Int) )(forall ((E1_!2452 Int) )(forall ((E1_!2463 Int) )(forall ((S2_V4_!2457 Int) )(forall ((S2_V4_!2462 Int) )(forall ((S2_V4_!2473 Int) )(forall ((S2_V4_!2483 Int) )(forall ((S1_V5_!2450 Int) )(forall ((S1_V5_!2467 Int) )(forall ((S1_V5_!2477 Int) )(forall ((S2_V1_!2453 Int) )(forall ((S2_V1_!2458 Int) )(forall ((S2_V1_!2469 Int) )(forall ((S2_V1_!2479 Int) )(forall ((S1_V4_!2451 Int) )(forall ((S1_V4_!2468 Int) )(forall ((S1_V4_!2478 Int) )(forall ((S2_V2_!2455 Int) )(forall ((S2_V2_!2460 Int) )(forall ((S2_V2_!2471 Int) )(forall ((S2_V2_!2481 Int) )(forall ((S2_V3_!2454 Int) )(forall ((S2_V3_!2459 Int) )(forall ((S2_V3_!2470 Int) )(forall ((S2_V3_!2480 Int) )(let (($x4149 (= (ite MW_S2_V4 S2_V4_!2462 (ite MW_S1_V4 S1_V4_!2451 V4_0)) (ite MW_S2_V4 S2_V4_!2483 (ite MW_S1_V4 S1_V4_!2478 (ite MW_S2_V4 S2_V4_!2473 (ite MW_S1_V4 S1_V4_!2468 V4_0)))))))
 (let (($x2067 (= (ite MW_S2_V5 S2_V5_!2461 (ite MW_S1_V5 S1_V5_!2450 V5_0)) (ite MW_S2_V5 S2_V5_!2482 (ite MW_S1_V5 S1_V5_!2477 (ite MW_S2_V5 S2_V5_!2472 (ite MW_S1_V5 S1_V5_!2467 V5_0)))))))
 (let ((?x2083 (ite MW_S1_V2 S1_V2_!2466 V2_0)))
 (let ((?x3616 (ite MW_S2_V2 S2_V2_!2471 ?x2083)))
 (let ((?x2007 (ite MW_S1_V2 S1_V2_!2476 ?x3616)))
 (let ((?x1895 (ite MW_S2_V2 S2_V2_!2481 ?x2007)))
 (let ((?x2259 (ite MW_S1_V2 S1_V2_!2449 V2_0)))
 (let ((?x4251 (ite MW_S2_V2 S2_V2_!2460 ?x2259)))
 (let (($x1418 (= (ite MW_S2_V3 S2_V3_!2459 (ite MW_S1_V3 S1_V3_!2448 V3_0)) (ite MW_S2_V3 S2_V3_!2480 (ite MW_S1_V3 S1_V3_!2475 (ite MW_S2_V3 S2_V3_!2470 (ite MW_S1_V3 S1_V3_!2465 V3_0)))))))
 (let ((?x2974 (ite MW_S1_V1 S1_V1_!2464 E1_!2463)))
 (let ((?x3845 (ite MW_S2_V1 S2_V1_!2469 ?x2974)))
 (let ((?x2886 (+ 1 ?x3845)))
 (let ((?x2240 (ite MW_S1_V1 S1_V1_!2474 ?x2886)))
 (let ((?x2402 (ite MW_S2_V1 S2_V1_!2479 ?x2240)))
 (let ((?x3972 (ite MW_S2_V1 S2_V1_!2453 E1_!2452)))
 (let ((?x2654 (+ 1 ?x3972)))
 (let ((?x2890 (ite MW_S2_V1 S2_V1_!2458 ?x2654)))
 (let (($x1969 (and (not (<= V2_0 E1_!2446)) (>= (ite MW_S1_V1 S1_V1_!2447 E1_!2446) (+ (- 1) ?x2259)) (not (<= ?x2259 E1_!2452)) (not (<= (ite MW_S2_V2 S2_V2_!2455 ?x2259) ?x2654)) (>= ?x2890 (+ (- 1) ?x4251)) (not (<= V2_0 E1_!2463)) (not (<= ?x3616 ?x2886)) (>= ?x2402 (+ (- 1) ?x1895)))))
 (let (($x1658 (= S2_V3_!2480 S2_V3_!2470)))
 (let ((?x4720 (ite MW_S1_V4 S1_V4_!2468 V4_0)))
 (let ((?x1734 (ite MW_S2_V4 S2_V4_!2473 ?x4720)))
 (let ((?x1573 (ite MW_S1_V4 S1_V4_!2478 ?x1734)))
 (let (($x1839 (not R_S2_V4)))
 (let ((?x1193 (ite MW_S1_V5 S1_V5_!2467 V5_0)))
 (let ((?x3820 (ite MW_S2_V5 S2_V5_!2472 ?x1193)))
 (let ((?x4736 (ite MW_S1_V5 S1_V5_!2477 ?x3820)))
 (let (($x3838 (not R_S2_V5)))
 (let ((?x4491 (ite MW_S1_V3 S1_V3_!2465 V3_0)))
 (let ((?x4620 (ite MW_S2_V3 S2_V3_!2470 ?x4491)))
 (let ((?x301 (ite MW_S1_V3 S1_V3_!2475 ?x4620)))
 (let (($x4911 (not R_S2_V3)))
 (let (($x3532 (and (or (not R_S2_V1) (= ?x2240 ?x2974)) (or $x4911 (= ?x301 ?x4491)) (or (not R_S2_V2) (= ?x2007 ?x2083)) (or $x3838 (= ?x4736 ?x1193)) (or $x1839 (= ?x1573 ?x4720)))))
 (let (($x2031 (not $x3532)))
 (let (($x3105 (= S2_V3_!2480 S2_V3_!2459)))
 (let (($x5505 (and (or (not R_S2_V1) (= ?x2240 ?x2654)) (or $x4911 (= ?x301 (ite MW_S2_V3 S2_V3_!2454 (ite MW_S1_V3 S1_V3_!2448 V3_0)))) (or (not R_S2_V2) (= ?x2007 (ite MW_S2_V2 S2_V2_!2455 ?x2259))) (or $x3838 (= ?x4736 (ite MW_S2_V5 S2_V5_!2456 (ite MW_S1_V5 S1_V5_!2450 V5_0)))) (or $x1839 (= ?x1573 (ite MW_S2_V4 S2_V4_!2457 (ite MW_S1_V4 S1_V4_!2451 V4_0)))))))
 (let (($x875 (not $x5505)))
 (let (($x5267 (= S2_V3_!2470 S2_V3_!2459)))
 (let (($x6065 (and (or (not R_S2_V1) (= ?x2974 ?x2654)) (or $x4911 (= ?x4491 (ite MW_S2_V3 S2_V3_!2454 (ite MW_S1_V3 S1_V3_!2448 V3_0)))) (or (not R_S2_V2) (= ?x2083 (ite MW_S2_V2 S2_V2_!2455 ?x2259))) (or $x3838 (= ?x1193 (ite MW_S2_V5 S2_V5_!2456 (ite MW_S1_V5 S1_V5_!2450 V5_0)))) (or $x1839 (= ?x4720 (ite MW_S2_V4 S2_V4_!2457 (ite MW_S1_V4 S1_V4_!2451 V4_0)))))))
 (let (($x3265 (not $x6065)))
 (let (($x260 (= S2_V3_!2454 S2_V3_!2480)))
 (let (($x3293 (and (or (not R_S2_V1) (= E1_!2452 ?x2240)) (or $x4911 (= (ite MW_S1_V3 S1_V3_!2448 V3_0) ?x301)) (or (not R_S2_V2) (= ?x2259 ?x2007)) (or $x3838 (= (ite MW_S1_V5 S1_V5_!2450 V5_0) ?x4736)) (or $x1839 (= (ite MW_S1_V4 S1_V4_!2451 V4_0) ?x1573)))))
 (let (($x5952 (not $x3293)))
 (let (($x2812 (= S2_V3_!2454 S2_V3_!2470)))
 (let (($x256 (and (or (not R_S2_V1) (= E1_!2452 ?x2974)) (or $x4911 (= (ite MW_S1_V3 S1_V3_!2448 V3_0) ?x4491)) (or (not R_S2_V2) (= ?x2259 ?x2083)) (or $x3838 (= (ite MW_S1_V5 S1_V5_!2450 V5_0) ?x1193)) (or $x1839 (= (ite MW_S1_V4 S1_V4_!2451 V4_0) ?x4720)))))
 (let (($x5316 (not $x256)))
 (let (($x5024 (= S2_V3_!2454 S2_V3_!2459)))
 (let (($x3657 (or $x1839 (= (ite MW_S1_V4 S1_V4_!2451 V4_0) (ite MW_S2_V4 S2_V4_!2457 (ite MW_S1_V4 S1_V4_!2451 V4_0))))))
 (let (($x2222 (or $x3838 (= (ite MW_S1_V5 S1_V5_!2450 V5_0) (ite MW_S2_V5 S2_V5_!2456 (ite MW_S1_V5 S1_V5_!2450 V5_0))))))
 (let (($x5692 (or $x4911 (= (ite MW_S1_V3 S1_V3_!2448 V3_0) (ite MW_S2_V3 S2_V3_!2454 (ite MW_S1_V3 S1_V3_!2448 V3_0))))))
 (let (($x3569 (and (or (not R_S2_V1) (= E1_!2452 ?x2654)) $x5692 (or (not R_S2_V2) (= ?x2259 (ite MW_S2_V2 S2_V2_!2455 ?x2259))) $x2222 $x3657)))
 (let (($x3149 (not $x3569)))
 (let (($x5218 (= S2_V2_!2481 S2_V2_!2455)))
 (let (($x127 (and (or (not R_S2_V1) (= ?x2240 E1_!2452)) (or $x4911 (= ?x301 (ite MW_S1_V3 S1_V3_!2448 V3_0))) (or (not R_S2_V2) (= ?x2007 ?x2259)) (or $x3838 (= ?x4736 (ite MW_S1_V5 S1_V5_!2450 V5_0))) (or $x1839 (= ?x1573 (ite MW_S1_V4 S1_V4_!2451 V4_0))))))
 (let (($x1602 (not $x127)))
 (let (($x3681 (= S2_V2_!2471 S2_V2_!2481)))
 (let (($x1317 (and (or (not R_S2_V1) (= ?x2974 ?x2240)) (or $x4911 (= ?x4491 ?x301)) (or (not R_S2_V2) (= ?x2083 ?x2007)) (or $x3838 (= ?x1193 ?x4736)) (or $x1839 (= ?x4720 ?x1573)))))
 (let (($x1517 (not $x1317)))
 (let (($x712 (= S2_V2_!2471 S2_V2_!2455)))
 (let (($x2893 (and (or (not R_S2_V1) (= ?x2974 E1_!2452)) (or $x4911 (= ?x4491 (ite MW_S1_V3 S1_V3_!2448 V3_0))) (or (not R_S2_V2) (= ?x2083 ?x2259)) (or $x3838 (= ?x1193 (ite MW_S1_V5 S1_V5_!2450 V5_0))) (or $x1839 (= ?x4720 (ite MW_S1_V4 S1_V4_!2451 V4_0))))))
 (let (($x3583 (not $x2893)))
 (let (($x657 (not R_S1_V4)))
 (let (($x5979 (or $x657 (= ?x1734 V4_0))))
 (let (($x1345 (not R_S1_V5)))
 (let (($x1185 (or $x1345 (= ?x3820 V5_0))))
 (let (($x3524 (not R_S1_V2)))
 (let (($x1258 (or $x3524 (= ?x3616 V2_0))))
 (let (($x185 (not R_S1_V3)))
 (let (($x691 (or $x185 (= ?x4620 V3_0))))
 (let (($x682 (and (or (not R_S1_V1) (= ?x3845 (+ (- 1) E1_!2446))) $x691 $x1258 $x1185 $x5979)))
 (let (($x5233 (not $x682)))
 (let (($x1433 (= S1_V4_!2468 S1_V4_!2478)))
 (let (($x885 (or $x657 (= V4_0 ?x1734))))
 (let (($x174 (or $x1345 (= V5_0 ?x3820))))
 (let (($x1805 (or $x3524 (= V2_0 ?x3616))))
 (let (($x1152 (or $x185 (= V3_0 ?x4620))))
 (let (($x4801 (not (and (or (not R_S1_V1) (= E1_!2463 ?x2886)) $x1152 $x1805 $x174 $x885))))
 (let (($x1971 (and (or (not R_S2_V1) (= ?x3972 (+ (- 1) ?x2240))) (or $x4911 (= (ite MW_S2_V3 S2_V3_!2454 (ite MW_S1_V3 S1_V3_!2448 V3_0)) ?x301)) (or (not R_S2_V2) (= (ite MW_S2_V2 S2_V2_!2455 ?x2259) ?x2007)) (or $x3838 (= (ite MW_S2_V5 S2_V5_!2456 (ite MW_S1_V5 S1_V5_!2450 V5_0)) ?x4736)) (or $x1839 (= (ite MW_S2_V4 S2_V4_!2457 (ite MW_S1_V4 S1_V4_!2451 V4_0)) ?x1573)))))
 (let (($x1629 (not $x1971)))
 (let (($x32 (and (or (not R_S1_V1) (= ?x3845 (+ (- 1) E1_!2463))) $x691 $x1258 $x1185 $x5979)))
 (let (($x598 (not $x32)))
 (let (($x1806 (and (or (not R_S2_V1) (= ?x3972 (+ (- 1) ?x2974))) (or $x4911 (= (ite MW_S2_V3 S2_V3_!2454 (ite MW_S1_V3 S1_V3_!2448 V3_0)) ?x4491)) (or (not R_S2_V2) (= (ite MW_S2_V2 S2_V2_!2455 ?x2259) ?x2083)) (or $x3838 (= (ite MW_S2_V5 S2_V5_!2456 (ite MW_S1_V5 S1_V5_!2450 V5_0)) ?x1193)) (or $x1839 (= (ite MW_S2_V4 S2_V4_!2457 (ite MW_S1_V4 S1_V4_!2451 V4_0)) ?x4720)))))
 (let (($x2720 (not $x1806)))
 (let (($x3140 (= E1_!2463 E1_!2446)))
 (let (($x2480 (and (or (not R_E1_V2) (= ?x2259 V2_0)) (or (not R_E1_V5) (= (ite MW_S1_V5 S1_V5_!2450 V5_0) V5_0)) (or (not R_E1_V4) (= (ite MW_S1_V4 S1_V4_!2451 V4_0) V4_0)))))
 (let (($x5864 (not $x2480)))
 (let (($x446 (or $x1839 (= (ite MW_S2_V4 S2_V4_!2457 (ite MW_S1_V4 S1_V4_!2451 V4_0)) (ite MW_S1_V4 S1_V4_!2451 V4_0)))))
 (let (($x407 (or $x3838 (= (ite MW_S2_V5 S2_V5_!2456 (ite MW_S1_V5 S1_V5_!2450 V5_0)) (ite MW_S1_V5 S1_V5_!2450 V5_0)))))
 (let (($x2528 (or $x4911 (= (ite MW_S2_V3 S2_V3_!2454 (ite MW_S1_V3 S1_V3_!2448 V3_0)) (ite MW_S1_V3 S1_V3_!2448 V3_0)))))
 (let (($x1273 (and (or (not R_S2_V1) (= ?x3972 (+ (- 1) E1_!2452))) $x2528 (or (not R_S2_V2) (= (ite MW_S2_V2 S2_V2_!2455 ?x2259) ?x2259)) $x407 $x446)))
 (let (($x1212 (or (not (and (or (not R_S1_V1) (= E1_!2446 ?x2886)) $x1152 $x1805 $x174 $x885)) (= S1_V1_!2447 S1_V1_!2474))))
 (let (($x5244 (and $x1212 (or (not (or (not R_S1_V1) $x3140)) (= S1_V1_!2464 S1_V1_!2447)) (or $x4801 (= S1_V1_!2464 S1_V1_!2474)) (or $x5316 (= S2_V5_!2456 S2_V5_!2472)) (or (not $x1273) (= S2_V5_!2461 S2_V5_!2456)) (or $x2720 (= S2_V5_!2461 S2_V5_!2472)) (or $x1602 (= S2_V5_!2482 S2_V5_!2456)) (or $x875 (= S2_V5_!2482 S2_V5_!2461)) (or $x2031 (= S2_V5_!2482 S2_V5_!2472)) (or (not (or (not R_S1_V1) $x3140)) (= S1_V3_!2465 S1_V3_!2448)) (or $x4801 (= S1_V3_!2465 S1_V3_!2475)) (or $x5233 (= S1_V3_!2475 S1_V3_!2448)) (or (not (or (not R_S1_V1) $x3140)) (= S1_V2_!2466 S1_V2_!2449)) (or $x5233 (= S1_V2_!2476 S1_V2_!2449)) (or $x598 (= S1_V2_!2476 S1_V2_!2466)) (or $x5864 (= E1_!2452 E1_!2446)) (or $x5864 (= E1_!2452 E1_!2463)) $x3140 (or $x3149 (= S2_V4_!2457 S2_V4_!2462)) (or $x5316 (= S2_V4_!2457 S2_V4_!2473)) (or $x5952 (= S2_V4_!2457 S2_V4_!2483)) (or $x2720 (= S2_V4_!2462 S2_V4_!2473)) (or $x1629 (= S2_V4_!2462 S2_V4_!2483)) (or $x2031 (= S2_V4_!2483 S2_V4_!2473)) (or (not (or (not R_S1_V1) $x3140)) (= S1_V5_!2467 S1_V5_!2450)) (or $x5233 (= S1_V5_!2477 S1_V5_!2450)) (or $x598 (= S1_V5_!2477 S1_V5_!2467)) (or $x3149 (= S2_V1_!2453 S2_V1_!2458)) (or $x5952 (= S2_V1_!2453 S2_V1_!2479)) (or $x1629 (= S2_V1_!2458 S2_V1_!2479)) (or $x3583 (= S2_V1_!2469 S2_V1_!2453)) (or $x3265 (= S2_V1_!2469 S2_V1_!2458)) (or $x1517 (= S2_V1_!2469 S2_V1_!2479)) (or (not (or (not R_S1_V1) $x3140)) (= S1_V4_!2468 S1_V4_!2451)) (or $x4801 $x1433) (or $x5233 (= S1_V4_!2478 S1_V4_!2451)) (or $x3149 (= S2_V2_!2455 S2_V2_!2460)) (or $x3583 $x712) (or $x3265 (= S2_V2_!2471 S2_V2_!2460)) (or $x1517 $x3681) (or $x1602 $x5218) (or $x875 (= S2_V2_!2481 S2_V2_!2460)) (or $x3149 $x5024) (or $x5316 $x2812) (or $x5952 $x260) (or $x3265 $x5267) (or $x875 $x3105) (or $x2031 $x1658) (not MW_S1_V1) (not MW_S1_V2) (or (not MW_S1_V5) W_S1_V5) (or (not MW_S1_V4) W_S1_V4) (or (not MW_S2_V1) W_S2_V1) (or (not MW_S2_V3) W_S2_V3) (or (not MW_S2_V2) W_S2_V2) (or (not MW_S2_V5) W_S2_V5))))
 (or (not $x5244) (not $x1969) (and (= ?x2890 ?x2402) $x1418 (= ?x4251 ?x1895) $x2067 $x4149))))))))))))))))))))))))))))))))))))))))))))))))))))))))))))))))))))))))))))))))))))))))))))))
 )
 )
 )
 )
 )
 )
 )
 )
 )
 )
 )
 )
 )
 )
 )
 )
 )
 )
 )
 )
 )
 )
 )
 )
 )
 )
 )
 )
 )
 )
 )
 )
 )
 )
 )
 )
 )
 )
 )
 )
 )
 )
 )
 )
 )
 )
 )
 )
 )
 )
 )
 ))
 (let (($x567 (not (or (and W_S2_V2 R_E1_V2) (and W_S2_V5 R_E1_V5) R_E1_V4))))
 (let (($x3598 (= DISJ_W_S2_R_E1 $x567)))
 (let (($x2217 (and W_S2_V5 R_S2_V5)))
 (let (($x2494 (and W_S2_V2 R_S2_V2)))
 (let (($x671 (and W_S2_V3 R_S2_V3)))
 (let (($x590 (and W_S2_V1 R_S2_V1)))
 (let (($x5411 (= DISJ_W_S2_R_S2 (not (or $x590 $x671 $x2494 $x2217 R_S2_V4)))))
 (let (($x2194 (and W_S2_V5 R_S1_V5)))
 (let (($x1963 (and W_S2_V2 R_S1_V2)))
 (let (($x2405 (and W_S2_V3 R_S1_V3)))
 (let (($x881 (and W_S2_V1 R_S1_V1)))
 (let (($x2327 (= DISJ_W_S2_R_S1 (not (or $x881 $x2405 $x1963 $x2194 R_S1_V4)))))
 (let (($x1047 (= DISJ_W_S1_W_S2 (not (or W_S2_V3 (and W_S1_V5 W_S2_V5) W_S1_V4)))))
 (let (($x1835 (not R_E1_V3)))
 (let (($x355 (not (or R_S2_V3 (and W_S1_V5 R_S2_V5) (and W_S1_V4 R_S2_V4)))))
 (let (($x928 (= DISJ_W_S1_R_S2 $x355)))
 (let (($x3097 (not (or R_S1_V3 (and W_S1_V5 R_S1_V5) (and W_S1_V4 R_S1_V4)))))
 (let (($x1689 (= DISJ_W_S1_R_S1 $x3097)))
 (let (($x6082 (or (and $x5250 DISJ_W_S2_R_S1 DISJ_W_S1_R_S1) $x2084 (and (not R_S1_V1) DISJ_W_S1_R_S1))))
 (let (($x2716 (not W_S1_V2)))
 (let (($x3343 (not W_S1_V1)))
 (let (($x2005 (not R_E1_V1)))
 (let (($x4810 (and DISJ_W_S1_R_E1 $x2005 $x3343 $x2716 $x6082 W_S1_V3 W_S2_V4 $x1689 $x928 $x1835 $x1047 $x2327 $x5411 $x3598 $x3712 $x243 $x4233)))
 (and $x4810 $x27 $x3055 $x1635 $x5767 $x2082 $x1596 $x2227 $x2166 $x2763 $x5789 $x4691 $x4671 $x3538 $x398 $x5470 $x3956 $x391 $x629 $x2382)))))))))))))))))))))))))))))))))))))))))))))))))))))
(check-sat)
